(declare-rel loop ((Array Int Int) (Array Int Int) Int Int ))
(declare-rel exit ())
(declare-var i Int )
(declare-var i1 Int )
(declare-var i2 Int )
(declare-var i3 Int )
(declare-var i4 Int )
(declare-var index_limit Int )
(declare-var a_i Int )
(declare-var a_i1 Int )
(declare-var a_i2 Int )
(declare-var a_i3 Int )
(declare-var a_i_plus_limit Int )
(declare-var a_i_plus_limit1 Int )
(declare-var a_i_plus_limit2 Int )
(declare-var a_i_plus_limit3 Int )
(declare-var b_i Int )
(declare-var b_i1 Int )
(declare-var b_i2 Int )
(declare-var b_i3 Int )
(declare-var count Int )
(declare-var a_array (Array Int Int) )
(declare-var a_array1 (Array Int Int) )
(declare-var a_array2 (Array Int Int) )
(declare-var a_array3 (Array Int Int) )
(declare-var a_array4 (Array Int Int) )
(declare-var b_array (Array Int Int) )

(rule (=> 
	(and 
		(= i 0)
	)
	(loop a_array b_array i count)
))
(rule (=> 
	(and 
		(loop a_array b_array i count)

		(< i (* count 4))
		
		(= a_i (select a_array i))
		(= b_i (select b_array i))
		(= a_i_plus_limit (+ a_i b_i))
		(= a_array1 (store a_array (+ i (* count 4)) a_i_plus_limit))

		(= a_i1 (select a_array1 (+ i 1)))
		(= b_i1 (select b_array (+ i 1)))
		(= a_i_plus_limit1 (+ a_i1 b_i1))
		(= a_array2 (store a_array1 (+ (+ i 1) (* count 4)) a_i_plus_limit1))

		(= a_i2 (select a_array2 (+ i 2)))
		(= b_i2 (select b_array (+ i 2)))
		(= a_i_plus_limit2 (+ a_i2 b_i2))
		(= a_array3 (store a_array2 (+ (+ i 2) (* count 4)) a_i_plus_limit2))

		(= a_i3 (select a_array3 (+ i 3)))
		(= b_i3 (select b_array (+ i 3)))
		(= a_i_plus_limit3 (+ a_i3 b_i3))
		(= a_array4 (store a_array3 (+ (+ i 3) (* count 4)) a_i_plus_limit3))
	)
	(loop a_array4 b_array (+ i 4) count)
))
(rule (=> 
	(and 
		(loop a_array b_array i count)
		(not (< i (* count 4)))
	)
	exit
))
(query exit)